n=50;
max_len=2;
digits_all=[1,2,3,4,5,6,7,8,9,1,0,1,1,1,2,1,3,1,4,1,5,1,6,1,7,1,8,1,9,2,0,2,1,2,2,2,3,2,4,2,5,2,6,2,7,2,8,2,9,3,0,3,1,3,2,3,3,3,4,3,5,3,6,3,7,3,8,3,9,4,0,4,1,4,2,4,3,4,4,4,5,4,6,4,7,4,8,4,9,5,0];
num_digits_all=91;
% missing number: 12
% random order
% 4 solutions:
%   2 with missing number 12
%   2 with missing number 21
digits_missing=[4,0,2,2,9,1,7,1,0,1,2,1,3,1,2,4,4,2,5,6,4,8,1,5,3,9,4,6,2,6,3,8,5,4,7,8,4,5,3,6,1,8,7,2,7,1,4,3,7,5,0,3,0,4,4,1,9,1,1,2,0,1,6,2,9,3,5,2,8,3,2,4,1,3,3,4,9,4,2,3,2,1,3,2,3,3,4,4,3];
num_digits_missing=89;

